RAW/montane/fspd/r101_seed-9.out
1009.95222	6.279	21.725
